sifdecoder -A pc64.lnx.gfo -st   GRIDNETH

 Problem name: GRIDNETH

 Double precision version will be formed

 The objective function uses 1 nonlinear group
 
 There are 3844 linear equality constraints
 
 There are 7564 free variables
 
 
 File successfully decoded
 CUTEST: tools (double precision version) compiled successfully
 CUTEst: ipopt (double precision version) compiled successfully

******************************************************************************
This program contains Ipopt, a library for large-scale nonlinear optimization.
 Ipopt is released as open source code under the Eclipse Public License (EPL).
         For more information visit http://projects.coin-or.org/Ipopt
******************************************************************************

This is Ipopt version trunk, running with linear solver ma57.

Number of nonzeros in equality constraint Jacobian...:    15128
Number of nonzeros in inequality constraint Jacobian.:        0
Number of nonzeros in Lagrangian Hessian.............:    16838

Reallocating memory for MA57: lfact (495380)
Total number of variables............................:     7564
                     variables with only lower bounds:        0
                variables with lower and upper bounds:        0
                     variables with only upper bounds:        0
Total number of equality constraints.................:     3844
Total number of inequality constraints...............:        0
        inequality constraints with only lower bounds:        0
   inequality constraints with lower and upper bounds:        0
        inequality constraints with only upper bounds:        0

iter    objective    inf_pr   inf_du lg(mu)  ||d||  lg(rg) alpha_du alpha_pr  ls
   0  7.5713333e+01 1.00e+01 3.33e-02  -1.0 0.00e+00    -  0.00e+00 0.00e+00   0
   1  2.0654349e+02 8.88e-16 1.08e-01  -1.0 5.13e+00    -  1.00e+00 1.00e+00h  1
   2  2.0648526e+02 1.78e-15 4.87e-03  -2.5 1.71e-01    -  1.00e+00 1.00e+00f  1
   3  2.0648058e+02 9.80e-12 5.96e-04  -3.8 1.06e-01    -  1.00e+00 1.00e+00f  1
   4  2.0648051e+02 4.47e-13 2.99e-06  -5.7 1.44e-02    -  1.00e+00 1.00e+00f  1
   5  2.0648051e+02 8.88e-16 4.73e-11  -8.6 6.28e-05    -  1.00e+00 1.00e+00h  1

Number of Iterations....: 5

                                   (scaled)                 (unscaled)
Objective...............:   2.0648050916155753e+02    2.0648050916155753e+02
Dual infeasibility......:   4.7312223583340085e-11    4.7312223583340085e-11
Constraint violation....:   8.8817841970012523e-16    8.8817841970012523e-16
Complementarity.........:   0.0000000000000000e+00    0.0000000000000000e+00
Overall NLP error.......:   4.7312223583340085e-11    4.7312223583340085e-11


Number of objective function evaluations             = 6
Number of objective gradient evaluations             = 6
Number of equality constraint evaluations            = 6
Number of inequality constraint evaluations          = 0
Number of equality constraint Jacobian evaluations   = 6
Number of inequality constraint Jacobian evaluations = 0
Number of Lagrangian Hessian evaluations             = 5
Total CPU secs in IPOPT (w/o function evaluations)   =      0.180
Total CPU secs in NLP function evaluations           =      0.011

EXIT: Optimal Solution Found.

************************ CUTEst statistics ************************


 Package used            :  IPOPT
 Problem                 :  GRIDNETH  
 # variables             =            7564
 # constraints           =            3844
 # objective functions   =        0.1300000E+02
 # objective gradients   =        0.7000000E+01
 # objective Hessians    =        0.6000000E+01
 # Hessian-vector prdct  =        0.0000000E+00
 # constraints functions =        0.1400000E+02
 # constraints gradients =        0.8000000E+01
 # constraints Hessians  =        0.6000000E+01
 Exit code               =               0
 Final f                 =        2.0648050916155753D+02
 Bounds feasibility      =        0.0000000000000000D+00
 Set up time             =            0.65 seconds
 Solve time              =            0.38 seconds


******************************************************************

